modeles/2_89.lp
minimize
obj: 1 x_1_ + 1 x_2_
subject to
c1_1: 1 t_1,1_ - 1 y_1,1_ <= 0
c2_1: 1 t_1,2_ - 1 y_1,1_ - 1 y_1,2_ <= 0
c3_1: 1 t_1,3_ - 1 y_1,2_ - 1 y_1,3_ <= 0
c4_1: 1 t_1,4_ - 1 y_1,3_ - 1 y_1,4_ <= 0
c5_1: 1 t_1,5_ - 1 y_1,4_ - 1 y_1,5_ <= 0
c6_1: 1 t_1,6_ - 1 y_1,5_ - 1 y_1,6_ <= 0
c7: 1 t_1,7_ - 1 y_1,6_ - 1 y_1,7_ <= 0
c8: 1 t_1,8_ - 1 y_1,7_ - 1 y_1,8_ <= 0
c9: 1 t_1,9_ - 1 y_1,8_ - 1 y_1,9_ <= 0
c10: 1 t_1,10_ - 1 y_1,9_ - 1 y_1,10_ <= 0
c11: 1 t_1,11_ - 1 y_1,10_ - 1 y_1,11_ <= 0
c12: 1 t_1,12_ - 1 y_1,11_ - 1 y_1,12_ <= 0
c13: 1 t_1,13_ - 1 y_1,12_ - 1 y_1,13_ <= 0
c14: 1 t_1,14_ - 1 y_1,13_ - 1 y_1,14_ <= 0
c15: 1 t_1,15_ - 1 y_1,14_ - 1 y_1,15_ <= 0
c16: 1 t_1,16_ - 1 y_1,15_ - 1 y_1,16_ <= 0
c17: 1 t_1,17_ - 1 y_1,16_ - 1 y_1,17_ <= 0
c18: 1 t_1,18_ - 1 y_1,17_ - 1 y_1,18_ <= 0
c19: 1 t_1,19_ - 1 y_1,18_ - 1 y_1,19_ <= 0
c20: 1 t_1,20_ - 1 y_1,19_ - 1 y_1,20_ <= 0
c21: 1 t_1,21_ - 1 y_1,20_ - 1 y_1,21_ <= 0
c22: 1 t_1,22_ - 1 y_1,21_ - 1 y_1,22_ <= 0
c23: 1 t_1,23_ - 1 y_1,22_ - 1 y_1,23_ <= 0
c24: 1 t_1,24_ - 1 y_1,23_ - 1 y_1,24_ <= 0
c25: 1 t_1,25_ - 1 y_1,24_ - 1 y_1,25_ <= 0
c26: 1 t_1,26_ - 1 y_1,25_ - 1 y_1,26_ <= 0
c27: 1 t_1,27_ - 1 y_1,26_ - 1 y_1,27_ <= 0
c28: 1 t_1,28_ - 1 y_1,27_ - 1 y_1,28_ <= 0
c29: 1 t_1,29_ - 1 y_1,28_ - 1 y_1,29_ <= 0
c30: 1 t_1,30_ - 1 y_1,29_ - 1 y_1,30_ <= 0
c31: 1 t_1,31_ - 1 y_1,30_ - 1 y_1,31_ <= 0
c32: 1 t_1,32_ - 1 y_1,31_ - 1 y_1,32_ <= 0
c33: 1 t_1,33_ - 1 y_1,32_ - 1 y_1,33_ <= 0
c34: 1 t_1,34_ - 1 y_1,33_ - 1 y_1,34_ <= 0
c35: 1 t_1,35_ - 1 y_1,34_ - 1 y_1,35_ <= 0
c36: 1 t_1,36_ - 1 y_1,35_ - 1 y_1,36_ <= 0
c37: 1 t_1,37_ - 1 y_1,36_ - 1 y_1,37_ <= 0
c38: 1 t_1,38_ - 1 y_1,37_ - 1 y_1,38_ <= 0
c39: 1 t_1,39_ - 1 y_1,38_ - 1 y_1,39_ <= 0
c40: 1 t_1,40_ - 1 y_1,39_ - 1 y_1,40_ <= 0
c41: 1 t_1,41_ - 1 y_1,40_ - 1 y_1,41_ <= 0
c42: 1 t_1,42_ - 1 y_1,41_ - 1 y_1,42_ <= 0
c43: 1 t_1,43_ - 1 y_1,42_ - 1 y_1,43_ <= 0
c44: 1 t_1,44_ - 1 y_1,43_ - 1 y_1,44_ <= 0
c45: 1 t_1,45_ - 1 y_1,44_ - 1 y_1,45_ <= 0
c46: 1 t_1,46_ - 1 y_1,45_ - 1 y_1,46_ <= 0
c47: 1 t_1,47_ - 1 y_1,46_ - 1 y_1,47_ <= 0
c48: 1 t_1,48_ - 1 y_1,47_ - 1 y_1,48_ <= 0
c49: 1 t_1,49_ - 1 y_1,48_ - 1 y_1,49_ <= 0
c50: 1 t_1,50_ - 1 y_1,49_ - 1 y_1,50_ <= 0
c51: 1 t_1,51_ - 1 y_1,50_ - 1 y_1,51_ <= 0
c52: 1 t_1,52_ - 1 y_1,51_ - 1 y_1,52_ <= 0
c53: 1 t_1,53_ - 1 y_1,52_ - 1 y_1,53_ <= 0
c54: 1 t_1,54_ - 1 y_1,53_ - 1 y_1,54_ <= 0
c55: 1 t_1,55_ - 1 y_1,54_ - 1 y_1,55_ <= 0
c56: 1 t_1,56_ - 1 y_1,55_ - 1 y_1,56_ <= 0
c57: 1 t_1,57_ - 1 y_1,56_ - 1 y_1,57_ <= 0
c58: 1 t_1,58_ - 1 y_1,57_ - 1 y_1,58_ <= 0
c59: 1 t_1,59_ - 1 y_1,58_ - 1 y_1,59_ <= 0
c60: 1 t_1,60_ - 1 y_1,59_ - 1 y_1,60_ <= 0
c61: 1 t_1,61_ - 1 y_1,60_ - 1 y_1,61_ <= 0
c62: 1 t_1,62_ - 1 y_1,61_ - 1 y_1,62_ <= 0
c63: 1 t_1,63_ - 1 y_1,62_ - 1 y_1,63_ <= 0
c64: 1 t_1,64_ - 1 y_1,63_ - 1 y_1,64_ <= 0
c65: 1 t_1,65_ - 1 y_1,64_ - 1 y_1,65_ <= 0
c66: 1 t_1,66_ - 1 y_1,65_ - 1 y_1,66_ <= 0
c67: 1 t_1,67_ - 1 y_1,66_ - 1 y_1,67_ <= 0
c68: 1 t_1,68_ - 1 y_1,67_ - 1 y_1,68_ <= 0
c69: 1 t_1,69_ - 1 y_1,68_ - 1 y_1,69_ <= 0
c70: 1 t_1,70_ - 1 y_1,69_ - 1 y_1,70_ <= 0
c71: 1 t_1,71_ - 1 y_1,70_ - 1 y_1,71_ <= 0
c72: 1 t_1,72_ - 1 y_1,71_ - 1 y_1,72_ <= 0
c73: 1 t_1,73_ - 1 y_1,72_ - 1 y_1,73_ <= 0
c74: 1 t_1,74_ - 1 y_1,73_ - 1 y_1,74_ <= 0
c75: 1 t_1,75_ - 1 y_1,74_ - 1 y_1,75_ <= 0
c76: 1 t_1,76_ - 1 y_1,75_ - 1 y_1,76_ <= 0
c77: 1 t_1,77_ - 1 y_1,76_ - 1 y_1,77_ <= 0
c78: 1 t_1,78_ - 1 y_1,77_ - 1 y_1,78_ <= 0
c79: 1 t_1,79_ - 1 y_1,78_ - 1 y_1,79_ <= 0
c80: 1 t_1,80_ - 1 y_1,79_ - 1 y_1,80_ <= 0
c81: 1 t_1,81_ - 1 y_1,80_ - 1 y_1,81_ <= 0
c82: 1 t_1,82_ - 1 y_1,81_ - 1 y_1,82_ <= 0
c83: 1 t_1,83_ - 1 y_1,82_ - 1 y_1,83_ <= 0
c84: 1 t_1,84_ - 1 y_1,83_ - 1 y_1,84_ <= 0
c85: 1 t_1,85_ - 1 y_1,84_ - 1 y_1,85_ <= 0
c86: 1 t_1,86_ - 1 y_1,85_ - 1 y_1,86_ <= 0
c87: 1 t_1,87_ - 1 y_1,86_ - 1 y_1,87_ <= 0
c88: 1 t_1,88_ - 1 y_1,87_ - 1 y_1,88_ <= 0
c89: 1 t_1,89_ - 1 y_1,88_ - 1 y_1,89_ <= 0
c90: 1 t_1,90_ - 1 y_1,89_ <= 0
c91: 1 t_2,1_ - 1 y_2,1_ <= 0
c92: 1 t_2,2_ - 1 y_2,1_ - 1 y_2,2_ <= 0
c93: 1 t_2,3_ - 1 y_2,2_ - 1 y_2,3_ <= 0
c94: 1 t_2,4_ - 1 y_2,3_ - 1 y_2,4_ <= 0
c95: 1 t_2,5_ - 1 y_2,4_ - 1 y_2,5_ <= 0
c96: 1 t_2,6_ - 1 y_2,5_ - 1 y_2,6_ <= 0
c97: 1 t_2,7_ - 1 y_2,6_ - 1 y_2,7_ <= 0
c98: 1 t_2,8_ - 1 y_2,7_ - 1 y_2,8_ <= 0
c99: 1 t_2,9_ - 1 y_2,8_ - 1 y_2,9_ <= 0
c100: 1 t_2,10_ - 1 y_2,9_ - 1 y_2,10_ <= 0
c101: 1 t_2,11_ - 1 y_2,10_ - 1 y_2,11_ <= 0
c102: 1 t_2,12_ - 1 y_2,11_ - 1 y_2,12_ <= 0
c103: 1 t_2,13_ - 1 y_2,12_ - 1 y_2,13_ <= 0
c104: 1 t_2,14_ - 1 y_2,13_ - 1 y_2,14_ <= 0
c105: 1 t_2,15_ - 1 y_2,14_ - 1 y_2,15_ <= 0
c106: 1 t_2,16_ - 1 y_2,15_ - 1 y_2,16_ <= 0
c107: 1 t_2,17_ - 1 y_2,16_ - 1 y_2,17_ <= 0
c108: 1 t_2,18_ - 1 y_2,17_ - 1 y_2,18_ <= 0
c109: 1 t_2,19_ - 1 y_2,18_ - 1 y_2,19_ <= 0
c110: 1 t_2,20_ - 1 y_2,19_ - 1 y_2,20_ <= 0
c111: 1 t_2,21_ - 1 y_2,20_ - 1 y_2,21_ <= 0
c112: 1 t_2,22_ - 1 y_2,21_ - 1 y_2,22_ <= 0
c113: 1 t_2,23_ - 1 y_2,22_ - 1 y_2,23_ <= 0
c114: 1 t_2,24_ - 1 y_2,23_ - 1 y_2,24_ <= 0
c115: 1 t_2,25_ - 1 y_2,24_ - 1 y_2,25_ <= 0
c116: 1 t_2,26_ - 1 y_2,25_ - 1 y_2,26_ <= 0
c117: 1 t_2,27_ - 1 y_2,26_ - 1 y_2,27_ <= 0
c118: 1 t_2,28_ - 1 y_2,27_ - 1 y_2,28_ <= 0
c119: 1 t_2,29_ - 1 y_2,28_ - 1 y_2,29_ <= 0
c120: 1 t_2,30_ - 1 y_2,29_ - 1 y_2,30_ <= 0
c121: 1 t_2,31_ - 1 y_2,30_ - 1 y_2,31_ <= 0
c122: 1 t_2,32_ - 1 y_2,31_ - 1 y_2,32_ <= 0
c123: 1 t_2,33_ - 1 y_2,32_ - 1 y_2,33_ <= 0
c124: 1 t_2,34_ - 1 y_2,33_ - 1 y_2,34_ <= 0
c125: 1 t_2,35_ - 1 y_2,34_ - 1 y_2,35_ <= 0
c126: 1 t_2,36_ - 1 y_2,35_ - 1 y_2,36_ <= 0
c127: 1 t_2,37_ - 1 y_2,36_ - 1 y_2,37_ <= 0
c128: 1 t_2,38_ - 1 y_2,37_ - 1 y_2,38_ <= 0
c129: 1 t_2,39_ - 1 y_2,38_ - 1 y_2,39_ <= 0
c130: 1 t_2,40_ - 1 y_2,39_ - 1 y_2,40_ <= 0
c131: 1 t_2,41_ - 1 y_2,40_ - 1 y_2,41_ <= 0
c132: 1 t_2,42_ - 1 y_2,41_ - 1 y_2,42_ <= 0
c133: 1 t_2,43_ - 1 y_2,42_ - 1 y_2,43_ <= 0
c134: 1 t_2,44_ - 1 y_2,43_ - 1 y_2,44_ <= 0
c135: 1 t_2,45_ - 1 y_2,44_ - 1 y_2,45_ <= 0
c136: 1 t_2,46_ - 1 y_2,45_ - 1 y_2,46_ <= 0
c137: 1 t_2,47_ - 1 y_2,46_ - 1 y_2,47_ <= 0
c138: 1 t_2,48_ - 1 y_2,47_ - 1 y_2,48_ <= 0
c139: 1 t_2,49_ - 1 y_2,48_ - 1 y_2,49_ <= 0
c140: 1 t_2,50_ - 1 y_2,49_ - 1 y_2,50_ <= 0
c141: 1 t_2,51_ - 1 y_2,50_ - 1 y_2,51_ <= 0
c142: 1 t_2,52_ - 1 y_2,51_ - 1 y_2,52_ <= 0
c143: 1 t_2,53_ - 1 y_2,52_ - 1 y_2,53_ <= 0
c144: 1 t_2,54_ - 1 y_2,53_ - 1 y_2,54_ <= 0
c145: 1 t_2,55_ - 1 y_2,54_ - 1 y_2,55_ <= 0
c146: 1 t_2,56_ - 1 y_2,55_ - 1 y_2,56_ <= 0
c147: 1 t_2,57_ - 1 y_2,56_ - 1 y_2,57_ <= 0
c148: 1 t_2,58_ - 1 y_2,57_ - 1 y_2,58_ <= 0
c149: 1 t_2,59_ - 1 y_2,58_ - 1 y_2,59_ <= 0
c150: 1 t_2,60_ - 1 y_2,59_ - 1 y_2,60_ <= 0
c151: 1 t_2,61_ - 1 y_2,60_ - 1 y_2,61_ <= 0
c152: 1 t_2,62_ - 1 y_2,61_ - 1 y_2,62_ <= 0
c153: 1 t_2,63_ - 1 y_2,62_ - 1 y_2,63_ <= 0
c154: 1 t_2,64_ - 1 y_2,63_ - 1 y_2,64_ <= 0
c155: 1 t_2,65_ - 1 y_2,64_ - 1 y_2,65_ <= 0
c156: 1 t_2,66_ - 1 y_2,65_ - 1 y_2,66_ <= 0
c157: 1 t_2,67_ - 1 y_2,66_ - 1 y_2,67_ <= 0
c158: 1 t_2,68_ - 1 y_2,67_ - 1 y_2,68_ <= 0
c159: 1 t_2,69_ - 1 y_2,68_ - 1 y_2,69_ <= 0
c160: 1 t_2,70_ - 1 y_2,69_ - 1 y_2,70_ <= 0
c161: 1 t_2,71_ - 1 y_2,70_ - 1 y_2,71_ <= 0
c162: 1 t_2,72_ - 1 y_2,71_ - 1 y_2,72_ <= 0
c163: 1 t_2,73_ - 1 y_2,72_ - 1 y_2,73_ <= 0
c164: 1 t_2,74_ - 1 y_2,73_ - 1 y_2,74_ <= 0
c165: 1 t_2,75_ - 1 y_2,74_ - 1 y_2,75_ <= 0
c166: 1 t_2,76_ - 1 y_2,75_ - 1 y_2,76_ <= 0
c167: 1 t_2,77_ - 1 y_2,76_ - 1 y_2,77_ <= 0
c168: 1 t_2,78_ - 1 y_2,77_ - 1 y_2,78_ <= 0
c169: 1 t_2,79_ - 1 y_2,78_ - 1 y_2,79_ <= 0
c170: 1 t_2,80_ - 1 y_2,79_ - 1 y_2,80_ <= 0
c171: 1 t_2,81_ - 1 y_2,80_ - 1 y_2,81_ <= 0
c172: 1 t_2,82_ - 1 y_2,81_ - 1 y_2,82_ <= 0
c173: 1 t_2,83_ - 1 y_2,82_ - 1 y_2,83_ <= 0
c174: 1 t_2,84_ - 1 y_2,83_ - 1 y_2,84_ <= 0
c175: 1 t_2,85_ - 1 y_2,84_ - 1 y_2,85_ <= 0
c176: 1 t_2,86_ - 1 y_2,85_ - 1 y_2,86_ <= 0
c177: 1 t_2,87_ - 1 y_2,86_ - 1 y_2,87_ <= 0
c178: 1 t_2,88_ - 1 y_2,87_ - 1 y_2,88_ <= 0
c179: 1 t_2,89_ - 1 y_2,88_ - 1 y_2,89_ <= 0
c180: 1 t_2,90_ - 1 y_2,89_ <= 0
c181: 4 t_1,1_ + 4 t_2,1_ + 3.822244666077515 t_1,2_ + 3.822244666077515 t_2,2_ + 3.6485292261078137 t_1,3_ + 3.6485292261078137 t_2,3_ + 3.4788536800908982 t_1,4_ + 3.4788536800908982 t_2,4_ + 3.3132180280267645 t_1,5_ + 3.3132180280267645 t_2,5_ + 3.151622269915414 t_1,6_ + 3.151622269915414 t_2,6_ + 2.9940664057568496 t_1,7_ + 2.9940664057568496 t_2,7_ + 2.840550435551067 t_1,8_ + 2.840550435551067 t_2,8_ + 2.6910743592980686 t_1,9_ + 2.6910743592980686 t_2,9_ + 2.5456381769978536 t_1,10_ + 2.5456381769978536 t_2,10_ + 2.4042418886504224 t_1,11_ + 2.4042418886504224 t_2,11_ + 2.266885494255776 t_1,12_ + 2.266885494255776 t_2,12_ + 2.1335689938139124 t_1,13_ + 2.1335689938139124 t_2,13_ + 2.0042923873248326 t_1,14_ + 2.0042923873248326 t_2,14_ + 1.8790556747885374 t_1,15_ + 1.8790556747885374 t_2,15_ + 1.757858856205025 t_1,16_ + 1.757858856205025 t_2,16_ + 1.6407019315742963 t_1,17_ + 1.6407019315742963 t_2,17_ + 1.5275849008963513 t_1,18_ + 1.5275849008963513 t_2,18_ + 1.41850776417119 t_1,19_ + 1.41850776417119 t_2,19_ + 1.3134705213988136 t_1,20_ + 1.3134705213988136 t_2,20_ + 1.21247317257922 t_1,21_ + 1.21247317257922 t_2,21_ + 1.1155157177124098 t_1,22_ + 1.1155157177124098 t_2,22_ + 1.0225981567983846 t_1,23_ + 1.0225981567983846 t_2,23_ + 0.9337204898371418 t_1,24_ + 0.9337204898371418 t_2,24_ + 0.8488827168286833 t_1,25_ + 0.8488827168286833 t_2,25_ + 0.7680848377730083 t_1,26_ + 0.7680848377730083 t_2,26_ + 0.6913268526701173 t_1,27_ + 0.6913268526701173 t_2,27_ + 0.6186087615200098 t_1,28_ + 0.6186087615200098 t_2,28_ + 0.5499305643226866 t_1,29_ + 0.5499305643226866 t_2,29_ + 0.4852922610781466 t_1,30_ + 0.4852922610781466 t_2,30_ + 0.4246938517863908 t_1,31_ + 0.4246938517863908 t_2,31_ + 0.3681353364474183 t_1,32_ + 0.3681353364474183 t_2,32_ + 0.3156167150612297 t_1,33_ + 0.3156167150612297 t_2,33_ + 0.2671379876278247 t_1,34_ + 0.2671379876278247 t_2,34_ + 0.22269915414720357 t_1,35_ + 0.22269915414720357 t_2,35_ + 0.1823002146193661 t_1,36_ + 0.1823002146193661 t_2,36_ + 0.14594116904431262 t_1,37_ + 0.14594116904431262 t_2,37_ + 0.11362201742204263 t_1,38_ + 0.11362201742204263 t_2,38_ + 0.08534275975255659 t_1,39_ + 0.08534275975255659 t_2,39_ + 0.06110339603585408 t_1,40_ + 0.06110339603585408 t_2,40_ + 0.040903926271935384 t_1,41_ + 0.040903926271935384 t_2,41_ + 0.024744350460800386 t_1,42_ + 0.024744350460800386 t_2,42_ + 0.012624668602449172 t_1,43_ + 0.012624668602449172 t_2,43_ + 0.004544880696881685 t_1,44_ + 0.004544880696881685 t_2,44_ + 0.0005049867440979699 t_1,45_ + 0.0005049867440979699 t_2,45_ + 0.0005049867440979699 t_1,46_ + 0.0005049867440979699 t_2,46_ + 0.004544880696881729 t_1,47_ + 0.004544880696881729 t_2,47_ + 0.012624668602449148 t_1,48_ + 0.012624668602449148 t_2,48_ + 0.024744350460800386 t_1,49_ + 0.024744350460800386 t_2,49_ + 0.040903926271935384 t_1,50_ + 0.040903926271935384 t_2,50_ + 0.061103396035854136 t_1,51_ + 0.061103396035854136 t_2,51_ + 0.0853427597525564 t_1,52_ + 0.0853427597525564 t_2,52_ + 0.11362201742204263 t_1,53_ + 0.11362201742204263 t_2,53_ + 0.14594116904431262 t_1,54_ + 0.14594116904431262 t_2,54_ + 0.18230021461936638 t_1,55_ + 0.18230021461936638 t_2,55_ + 0.22269915414720345 t_1,56_ + 0.22269915414720345 t_2,56_ + 0.2671379876278247 t_1,57_ + 0.2671379876278247 t_2,57_ + 0.3156167150612297 t_1,58_ + 0.3156167150612297 t_2,58_ + 0.3681353364474184 t_1,59_ + 0.3681353364474184 t_2,59_ + 0.42469385178639035 t_1,60_ + 0.42469385178639035 t_2,60_ + 0.4852922610781466 t_1,61_ + 0.4852922610781466 t_2,61_ + 0.5499305643226866 t_1,62_ + 0.5499305643226866 t_2,62_ + 0.6186087615200103 t_1,63_ + 0.6186087615200103 t_2,63_ + 0.6913268526701171 t_1,64_ + 0.6913268526701171 t_2,64_ + 0.7680848377730083 t_1,65_ + 0.7680848377730083 t_2,65_ + 0.8488827168286833 t_1,66_ + 0.8488827168286833 t_2,66_ + 0.9337204898371421 t_1,67_ + 0.9337204898371421 t_2,67_ + 1.0225981567983837 t_1,68_ + 1.0225981567983837 t_2,68_ + 1.1155157177124098 t_1,69_ + 1.1155157177124098 t_2,69_ + 1.21247317257922 t_1,70_ + 1.21247317257922 t_2,70_ + 1.3134705213988136 t_1,71_ + 1.3134705213988136 t_2,71_ + 1.41850776417119 t_1,72_ + 1.41850776417119 t_2,72_ + 1.5275849008963513 t_1,73_ + 1.5275849008963513 t_2,73_ + 1.6407019315742963 t_1,74_ + 1.6407019315742963 t_2,74_ + 1.757858856205025 t_1,75_ + 1.757858856205025 t_2,75_ + 1.8790556747885363 t_1,76_ + 1.8790556747885363 t_2,76_ + 2.0042923873248326 t_1,77_ + 2.0042923873248326 t_2,77_ + 2.1335689938139124 t_1,78_ + 2.1335689938139124 t_2,78_ + 2.266885494255776 t_1,79_ + 2.266885494255776 t_2,79_ + 2.4042418886504224 t_1,80_ + 2.4042418886504224 t_2,80_ + 2.5456381769978536 t_1,81_ + 2.5456381769978536 t_2,81_ + 2.6910743592980686 t_1,82_ + 2.6910743592980686 t_2,82_ + 2.840550435551067 t_1,83_ + 2.840550435551067 t_2,83_ + 2.9940664057568482 t_1,84_ + 2.9940664057568482 t_2,84_ + 3.151622269915414 t_1,85_ + 3.151622269915414 t_2,85_ + 3.3132180280267645 t_1,86_ + 3.3132180280267645 t_2,86_ + 3.4788536800908982 t_1,87_ + 3.4788536800908982 t_2,87_ + 3.6485292261078137 t_1,88_ + 3.6485292261078137 t_2,88_ + 3.822244666077515 t_1,89_ + 3.822244666077515 t_2,89_ + 4 t_1,90_ + 4 t_2,90_ <= 1
c1: 1 y_1,1_ + 1 y_1,2_ + 1 y_1,3_ + 1 y_1,4_ + 1 y_1,5_ + 1 y_1,6_ + 1 y_1,7_ + 1 y_1,8_ + 1 y_1,9_ + 1 y_1,10_ + 1 y_1,11_ + 1 y_1,12_ + 1 y_1,13_ + 1 y_1,14_ + 1 y_1,15_ + 1 y_1,16_ + 1 y_1,17_ + 1 y_1,18_ + 1 y_1,19_ + 1 y_1,20_ + 1 y_1,21_ + 1 y_1,22_ + 1 y_1,23_ + 1 y_1,24_ + 1 y_1,25_ + 1 y_1,26_ + 1 y_1,27_ + 1 y_1,28_ + 1 y_1,29_ + 1 y_1,30_ + 1 y_1,31_ + 1 y_1,32_ + 1 y_1,33_ + 1 y_1,34_ + 1 y_1,35_ + 1 y_1,36_ + 1 y_1,37_ + 1 y_1,38_ + 1 y_1,39_ + 1 y_1,40_ + 1 y_1,41_ + 1 y_1,42_ + 1 y_1,43_ + 1 y_1,44_ + 1 y_1,45_ + 1 y_1,46_ + 1 y_1,47_ + 1 y_1,48_ + 1 y_1,49_ + 1 y_1,50_ + 1 y_1,51_ + 1 y_1,52_ + 1 y_1,53_ + 1 y_1,54_ + 1 y_1,55_ + 1 y_1,56_ + 1 y_1,57_ + 1 y_1,58_ + 1 y_1,59_ + 1 y_1,60_ + 1 y_1,61_ + 1 y_1,62_ + 1 y_1,63_ + 1 y_1,64_ + 1 y_1,65_ + 1 y_1,66_ + 1 y_1,67_ + 1 y_1,68_ + 1 y_1,69_ + 1 y_1,70_ + 1 y_1,71_ + 1 y_1,72_ + 1 y_1,73_ + 1 y_1,74_ + 1 y_1,75_ + 1 y_1,76_ + 1 y_1,77_ + 1 y_1,78_ + 1 y_1,79_ + 1 y_1,80_ + 1 y_1,81_ + 1 y_1,82_ + 1 y_1,83_ + 1 y_1,84_ + 1 y_1,85_ + 1 y_1,86_ + 1 y_1,87_ + 1 y_1,88_ + 1 y_1,89_ = 1
c2: 1 t_1,1_ + 1 t_1,2_ + 1 t_1,3_ + 1 t_1,4_ + 1 t_1,5_ + 1 t_1,6_ + 1 t_1,7_ + 1 t_1,8_ + 1 t_1,9_ + 1 t_1,10_ + 1 t_1,11_ + 1 t_1,12_ + 1 t_1,13_ + 1 t_1,14_ + 1 t_1,15_ + 1 t_1,16_ + 1 t_1,17_ + 1 t_1,18_ + 1 t_1,19_ + 1 t_1,20_ + 1 t_1,21_ + 1 t_1,22_ + 1 t_1,23_ + 1 t_1,24_ + 1 t_1,25_ + 1 t_1,26_ + 1 t_1,27_ + 1 t_1,28_ + 1 t_1,29_ + 1 t_1,30_ + 1 t_1,31_ + 1 t_1,32_ + 1 t_1,33_ + 1 t_1,34_ + 1 t_1,35_ + 1 t_1,36_ + 1 t_1,37_ + 1 t_1,38_ + 1 t_1,39_ + 1 t_1,40_ + 1 t_1,41_ + 1 t_1,42_ + 1 t_1,43_ + 1 t_1,44_ + 1 t_1,45_ + 1 t_1,46_ + 1 t_1,47_ + 1 t_1,48_ + 1 t_1,49_ + 1 t_1,50_ + 1 t_1,51_ + 1 t_1,52_ + 1 t_1,53_ + 1 t_1,54_ + 1 t_1,55_ + 1 t_1,56_ + 1 t_1,57_ + 1 t_1,58_ + 1 t_1,59_ + 1 t_1,60_ + 1 t_1,61_ + 1 t_1,62_ + 1 t_1,63_ + 1 t_1,64_ + 1 t_1,65_ + 1 t_1,66_ + 1 t_1,67_ + 1 t_1,68_ + 1 t_1,69_ + 1 t_1,70_ + 1 t_1,71_ + 1 t_1,72_ + 1 t_1,73_ + 1 t_1,74_ + 1 t_1,75_ + 1 t_1,76_ + 1 t_1,77_ + 1 t_1,78_ + 1 t_1,79_ + 1 t_1,80_ + 1 t_1,81_ + 1 t_1,82_ + 1 t_1,83_ + 1 t_1,84_ + 1 t_1,85_ + 1 t_1,86_ + 1 t_1,87_ + 1 t_1,88_ + 1 t_1,89_ + 1 t_1,90_ = 1
c3: -2 t_1,1_ - 1.9550561797752808 t_1,2_ - 1.9101123595505616 t_1,3_ - 1.8651685393258428 t_1,4_ - 1.8202247191011236 t_1,5_ - 1.7752808988764044 t_1,6_ - 1.7303370786516856 t_1,7_ - 1.6853932584269664 t_1,8_ - 1.6404494382022472 t_1,9_ - 1.595505617977528 t_1,10_ - 1.5505617977528088 t_1,11_ - 1.50561797752809 t_1,12_ - 1.4606741573033708 t_1,13_ - 1.4157303370786516 t_1,14_ - 1.3707865168539328 t_1,15_ - 1.3258426966292136 t_1,16_ - 1.2808988764044944 t_1,17_ - 1.2359550561797752 t_1,18_ - 1.191011235955056 t_1,19_ - 1.1460674157303372 t_1,20_ - 1.101123595505618 t_1,21_ - 1.0561797752808988 t_1,22_ - 1.01123595505618 t_1,23_ - 0.9662921348314607 t_1,24_ - 0.9213483146067416 t_1,25_ - 0.8764044943820224 t_1,26_ - 0.8314606741573033 t_1,27_ - 0.7865168539325841 t_1,28_ - 0.7415730337078652 t_1,29_ - 0.696629213483146 t_1,30_ - 0.6516853932584271 t_1,31_ - 0.6067415730337079 t_1,32_ - 0.5617977528089888 t_1,33_ - 0.5168539325842696 t_1,34_ - 0.4719101123595505 t_1,35_ - 0.4269662921348313 t_1,36_ - 0.3820224719101124 t_1,37_ - 0.3370786516853932 t_1,38_ - 0.2921348314606743 t_1,39_ - 0.2471910112359551 t_1,40_ - 0.202247191011236 t_1,41_ - 0.1573033707865168 t_1,42_ - 0.1123595505617977 t_1,43_ - 0.06741573033707848 t_1,44_ - 0.022471910112359605 t_1,45_ + 0.022471910112359605 t_1,46_ + 0.06741573033707882 t_1,47_ + 0.11235955056179758 t_1,48_ + 0.1573033707865168 t_1,49_ + 0.202247191011236 t_1,50_ + 0.24719101123595522 t_1,51_ + 0.292134831460674 t_1,52_ + 0.3370786516853932 t_1,53_ + 0.3820224719101124 t_1,54_ + 0.4269662921348316 t_1,55_ + 0.4719101123595504 t_1,56_ + 0.5168539325842696 t_1,57_ + 0.5617977528089888 t_1,58_ + 0.606741573033708 t_1,59_ + 0.6516853932584268 t_1,60_ + 0.696629213483146 t_1,61_ + 0.7415730337078652 t_1,62_ + 0.7865168539325844 t_1,63_ + 0.8314606741573032 t_1,64_ + 0.8764044943820224 t_1,65_ + 0.9213483146067416 t_1,66_ + 0.9662921348314608 t_1,67_ + 1.0112359550561796 t_1,68_ + 1.0561797752808988 t_1,69_ + 1.101123595505618 t_1,70_ + 1.1460674157303372 t_1,71_ + 1.191011235955056 t_1,72_ + 1.2359550561797752 t_1,73_ + 1.2808988764044944 t_1,74_ + 1.3258426966292136 t_1,75_ + 1.3707865168539324 t_1,76_ + 1.4157303370786516 t_1,77_ + 1.4606741573033708 t_1,78_ + 1.50561797752809 t_1,79_ + 1.5505617977528088 t_1,80_ + 1.595505617977528 t_1,81_ + 1.6404494382022472 t_1,82_ + 1.6853932584269664 t_1,83_ + 1.7303370786516852 t_1,84_ + 1.7752808988764044 t_1,85_ + 1.8202247191011236 t_1,86_ + 1.8651685393258428 t_1,87_ + 1.9101123595505616 t_1,88_ + 1.9550561797752808 t_1,89_ + 2 t_1,90_ - 1 x_1_ = 0
c4: 1 y_2,1_ + 1 y_2,2_ + 1 y_2,3_ + 1 y_2,4_ + 1 y_2,5_ + 1 y_2,6_ + 1 y_2,7_ + 1 y_2,8_ + 1 y_2,9_ + 1 y_2,10_ + 1 y_2,11_ + 1 y_2,12_ + 1 y_2,13_ + 1 y_2,14_ + 1 y_2,15_ + 1 y_2,16_ + 1 y_2,17_ + 1 y_2,18_ + 1 y_2,19_ + 1 y_2,20_ + 1 y_2,21_ + 1 y_2,22_ + 1 y_2,23_ + 1 y_2,24_ + 1 y_2,25_ + 1 y_2,26_ + 1 y_2,27_ + 1 y_2,28_ + 1 y_2,29_ + 1 y_2,30_ + 1 y_2,31_ + 1 y_2,32_ + 1 y_2,33_ + 1 y_2,34_ + 1 y_2,35_ + 1 y_2,36_ + 1 y_2,37_ + 1 y_2,38_ + 1 y_2,39_ + 1 y_2,40_ + 1 y_2,41_ + 1 y_2,42_ + 1 y_2,43_ + 1 y_2,44_ + 1 y_2,45_ + 1 y_2,46_ + 1 y_2,47_ + 1 y_2,48_ + 1 y_2,49_ + 1 y_2,50_ + 1 y_2,51_ + 1 y_2,52_ + 1 y_2,53_ + 1 y_2,54_ + 1 y_2,55_ + 1 y_2,56_ + 1 y_2,57_ + 1 y_2,58_ + 1 y_2,59_ + 1 y_2,60_ + 1 y_2,61_ + 1 y_2,62_ + 1 y_2,63_ + 1 y_2,64_ + 1 y_2,65_ + 1 y_2,66_ + 1 y_2,67_ + 1 y_2,68_ + 1 y_2,69_ + 1 y_2,70_ + 1 y_2,71_ + 1 y_2,72_ + 1 y_2,73_ + 1 y_2,74_ + 1 y_2,75_ + 1 y_2,76_ + 1 y_2,77_ + 1 y_2,78_ + 1 y_2,79_ + 1 y_2,80_ + 1 y_2,81_ + 1 y_2,82_ + 1 y_2,83_ + 1 y_2,84_ + 1 y_2,85_ + 1 y_2,86_ + 1 y_2,87_ + 1 y_2,88_ + 1 y_2,89_ = 1
c5: 1 t_2,1_ + 1 t_2,2_ + 1 t_2,3_ + 1 t_2,4_ + 1 t_2,5_ + 1 t_2,6_ + 1 t_2,7_ + 1 t_2,8_ + 1 t_2,9_ + 1 t_2,10_ + 1 t_2,11_ + 1 t_2,12_ + 1 t_2,13_ + 1 t_2,14_ + 1 t_2,15_ + 1 t_2,16_ + 1 t_2,17_ + 1 t_2,18_ + 1 t_2,19_ + 1 t_2,20_ + 1 t_2,21_ + 1 t_2,22_ + 1 t_2,23_ + 1 t_2,24_ + 1 t_2,25_ + 1 t_2,26_ + 1 t_2,27_ + 1 t_2,28_ + 1 t_2,29_ + 1 t_2,30_ + 1 t_2,31_ + 1 t_2,32_ + 1 t_2,33_ + 1 t_2,34_ + 1 t_2,35_ + 1 t_2,36_ + 1 t_2,37_ + 1 t_2,38_ + 1 t_2,39_ + 1 t_2,40_ + 1 t_2,41_ + 1 t_2,42_ + 1 t_2,43_ + 1 t_2,44_ + 1 t_2,45_ + 1 t_2,46_ + 1 t_2,47_ + 1 t_2,48_ + 1 t_2,49_ + 1 t_2,50_ + 1 t_2,51_ + 1 t_2,52_ + 1 t_2,53_ + 1 t_2,54_ + 1 t_2,55_ + 1 t_2,56_ + 1 t_2,57_ + 1 t_2,58_ + 1 t_2,59_ + 1 t_2,60_ + 1 t_2,61_ + 1 t_2,62_ + 1 t_2,63_ + 1 t_2,64_ + 1 t_2,65_ + 1 t_2,66_ + 1 t_2,67_ + 1 t_2,68_ + 1 t_2,69_ + 1 t_2,70_ + 1 t_2,71_ + 1 t_2,72_ + 1 t_2,73_ + 1 t_2,74_ + 1 t_2,75_ + 1 t_2,76_ + 1 t_2,77_ + 1 t_2,78_ + 1 t_2,79_ + 1 t_2,80_ + 1 t_2,81_ + 1 t_2,82_ + 1 t_2,83_ + 1 t_2,84_ + 1 t_2,85_ + 1 t_2,86_ + 1 t_2,87_ + 1 t_2,88_ + 1 t_2,89_ + 1 t_2,90_ = 1
c6: -2 t_2,1_ - 1.9550561797752808 t_2,2_ - 1.9101123595505616 t_2,3_ - 1.8651685393258428 t_2,4_ - 1.8202247191011236 t_2,5_ - 1.7752808988764044 t_2,6_ - 1.7303370786516856 t_2,7_ - 1.6853932584269664 t_2,8_ - 1.6404494382022472 t_2,9_ - 1.595505617977528 t_2,10_ - 1.5505617977528088 t_2,11_ - 1.50561797752809 t_2,12_ - 1.4606741573033708 t_2,13_ - 1.4157303370786516 t_2,14_ - 1.3707865168539328 t_2,15_ - 1.3258426966292136 t_2,16_ - 1.2808988764044944 t_2,17_ - 1.2359550561797752 t_2,18_ - 1.191011235955056 t_2,19_ - 1.1460674157303372 t_2,20_ - 1.101123595505618 t_2,21_ - 1.0561797752808988 t_2,22_ - 1.01123595505618 t_2,23_ - 0.9662921348314607 t_2,24_ - 0.9213483146067416 t_2,25_ - 0.8764044943820224 t_2,26_ - 0.8314606741573033 t_2,27_ - 0.7865168539325841 t_2,28_ - 0.7415730337078652 t_2,29_ - 0.696629213483146 t_2,30_ - 0.6516853932584271 t_2,31_ - 0.6067415730337079 t_2,32_ - 0.5617977528089888 t_2,33_ - 0.5168539325842696 t_2,34_ - 0.4719101123595505 t_2,35_ - 0.4269662921348313 t_2,36_ - 0.3820224719101124 t_2,37_ - 0.3370786516853932 t_2,38_ - 0.2921348314606743 t_2,39_ - 0.2471910112359551 t_2,40_ - 0.202247191011236 t_2,41_ - 0.1573033707865168 t_2,42_ - 0.1123595505617977 t_2,43_ - 0.06741573033707848 t_2,44_ - 0.022471910112359605 t_2,45_ + 0.022471910112359605 t_2,46_ + 0.06741573033707882 t_2,47_ + 0.11235955056179758 t_2,48_ + 0.1573033707865168 t_2,49_ + 0.202247191011236 t_2,50_ + 0.24719101123595522 t_2,51_ + 0.292134831460674 t_2,52_ + 0.3370786516853932 t_2,53_ + 0.3820224719101124 t_2,54_ + 0.4269662921348316 t_2,55_ + 0.4719101123595504 t_2,56_ + 0.5168539325842696 t_2,57_ + 0.5617977528089888 t_2,58_ + 0.606741573033708 t_2,59_ + 0.6516853932584268 t_2,60_ + 0.696629213483146 t_2,61_ + 0.7415730337078652 t_2,62_ + 0.7865168539325844 t_2,63_ + 0.8314606741573032 t_2,64_ + 0.8764044943820224 t_2,65_ + 0.9213483146067416 t_2,66_ + 0.9662921348314608 t_2,67_ + 1.0112359550561796 t_2,68_ + 1.0561797752808988 t_2,69_ + 1.101123595505618 t_2,70_ + 1.1460674157303372 t_2,71_ + 1.191011235955056 t_2,72_ + 1.2359550561797752 t_2,73_ + 1.2808988764044944 t_2,74_ + 1.3258426966292136 t_2,75_ + 1.3707865168539324 t_2,76_ + 1.4157303370786516 t_2,77_ + 1.4606741573033708 t_2,78_ + 1.50561797752809 t_2,79_ + 1.5505617977528088 t_2,80_ + 1.595505617977528 t_2,81_ + 1.6404494382022472 t_2,82_ + 1.6853932584269664 t_2,83_ + 1.7303370786516852 t_2,84_ + 1.7752808988764044 t_2,85_ + 1.8202247191011236 t_2,86_ + 1.8651685393258428 t_2,87_ + 1.9101123595505616 t_2,88_ + 1.9550561797752808 t_2,89_ + 2 t_2,90_ - 1 x_2_ = 0
Bounds
x_1_ <= 2
x_2_ <= 2
t_1,1_ >= 0
t_2,1_ >= 0
t_1,2_ >= 0
t_2,2_ >= 0
t_1,3_ >= 0
t_2,3_ >= 0
t_1,4_ >= 0
t_2,4_ >= 0
t_1,5_ >= 0
t_2,5_ >= 0
t_1,6_ >= 0
t_2,6_ >= 0
t_1,7_ >= 0
t_2,7_ >= 0
t_1,8_ >= 0
t_2,8_ >= 0
t_1,9_ >= 0
t_2,9_ >= 0
t_1,10_ >= 0
t_2,10_ >= 0
t_1,11_ >= 0
t_2,11_ >= 0
t_1,12_ >= 0
t_2,12_ >= 0
t_1,13_ >= 0
t_2,13_ >= 0
t_1,14_ >= 0
t_2,14_ >= 0
t_1,15_ >= 0
t_2,15_ >= 0
t_1,16_ >= 0
t_2,16_ >= 0
t_1,17_ >= 0
t_2,17_ >= 0
t_1,18_ >= 0
t_2,18_ >= 0
t_1,19_ >= 0
t_2,19_ >= 0
t_1,20_ >= 0
t_2,20_ >= 0
t_1,21_ >= 0
t_2,21_ >= 0
t_1,22_ >= 0
t_2,22_ >= 0
t_1,23_ >= 0
t_2,23_ >= 0
t_1,24_ >= 0
t_2,24_ >= 0
t_1,25_ >= 0
t_2,25_ >= 0
t_1,26_ >= 0
t_2,26_ >= 0
t_1,27_ >= 0
t_2,27_ >= 0
t_1,28_ >= 0
t_2,28_ >= 0
t_1,29_ >= 0
t_2,29_ >= 0
t_1,30_ >= 0
t_2,30_ >= 0
t_1,31_ >= 0
t_2,31_ >= 0
t_1,32_ >= 0
t_2,32_ >= 0
t_1,33_ >= 0
t_2,33_ >= 0
t_1,34_ >= 0
t_2,34_ >= 0
t_1,35_ >= 0
t_2,35_ >= 0
t_1,36_ >= 0
t_2,36_ >= 0
t_1,37_ >= 0
t_2,37_ >= 0
t_1,38_ >= 0
t_2,38_ >= 0
t_1,39_ >= 0
t_2,39_ >= 0
t_1,40_ >= 0
t_2,40_ >= 0
t_1,41_ >= 0
t_2,41_ >= 0
t_1,42_ >= 0
t_2,42_ >= 0
t_1,43_ >= 0
t_2,43_ >= 0
t_1,44_ >= 0
t_2,44_ >= 0
t_1,45_ >= 0
t_2,45_ >= 0
t_1,46_ >= 0
t_2,46_ >= 0
t_1,47_ >= 0
t_2,47_ >= 0
t_1,48_ >= 0
t_2,48_ >= 0
t_1,49_ >= 0
t_2,49_ >= 0
t_1,50_ >= 0
t_2,50_ >= 0
t_1,51_ >= 0
t_2,51_ >= 0
t_1,52_ >= 0
t_2,52_ >= 0
t_1,53_ >= 0
t_2,53_ >= 0
t_1,54_ >= 0
t_2,54_ >= 0
t_1,55_ >= 0
t_2,55_ >= 0
t_1,56_ >= 0
t_2,56_ >= 0
t_1,57_ >= 0
t_2,57_ >= 0
t_1,58_ >= 0
t_2,58_ >= 0
t_1,59_ >= 0
t_2,59_ >= 0
t_1,60_ >= 0
t_2,60_ >= 0
t_1,61_ >= 0
t_2,61_ >= 0
t_1,62_ >= 0
t_2,62_ >= 0
t_1,63_ >= 0
t_2,63_ >= 0
t_1,64_ >= 0
t_2,64_ >= 0
t_1,65_ >= 0
t_2,65_ >= 0
t_1,66_ >= 0
t_2,66_ >= 0
t_1,67_ >= 0
t_2,67_ >= 0
t_1,68_ >= 0
t_2,68_ >= 0
t_1,69_ >= 0
t_2,69_ >= 0
t_1,70_ >= 0
t_2,70_ >= 0
t_1,71_ >= 0
t_2,71_ >= 0
t_1,72_ >= 0
t_2,72_ >= 0
t_1,73_ >= 0
t_2,73_ >= 0
t_1,74_ >= 0
t_2,74_ >= 0
t_1,75_ >= 0
t_2,75_ >= 0
t_1,76_ >= 0
t_2,76_ >= 0
t_1,77_ >= 0
t_2,77_ >= 0
t_1,78_ >= 0
t_2,78_ >= 0
t_1,79_ >= 0
t_2,79_ >= 0
t_1,80_ >= 0
t_2,80_ >= 0
t_1,81_ >= 0
t_2,81_ >= 0
t_1,82_ >= 0
t_2,82_ >= 0
t_1,83_ >= 0
t_2,83_ >= 0
t_1,84_ >= 0
t_2,84_ >= 0
t_1,85_ >= 0
t_2,85_ >= 0
t_1,86_ >= 0
t_2,86_ >= 0
t_1,87_ >= 0
t_2,87_ >= 0
t_1,88_ >= 0
t_2,88_ >= 0
t_1,89_ >= 0
t_2,89_ >= 0
t_1,90_ >= 0
t_2,90_ >= 0
x_1_ >= -2
x_2_ >= -2
Binary
y_1,1_
y_2,1_
y_1,2_
y_2,2_
y_1,3_
y_2,3_
y_1,4_
y_2,4_
y_1,5_
y_2,5_
y_1,6_
y_2,6_
y_1,7_
y_2,7_
y_1,8_
y_2,8_
y_1,9_
y_2,9_
y_1,10_
y_2,10_
y_1,11_
y_2,11_
y_1,12_
y_2,12_
y_1,13_
y_2,13_
y_1,14_
y_2,14_
y_1,15_
y_2,15_
y_1,16_
y_2,16_
y_1,17_
y_2,17_
y_1,18_
y_2,18_
y_1,19_
y_2,19_
y_1,20_
y_2,20_
y_1,21_
y_2,21_
y_1,22_
y_2,22_
y_1,23_
y_2,23_
y_1,24_
y_2,24_
y_1,25_
y_2,25_
y_1,26_
y_2,26_
y_1,27_
y_2,27_
y_1,28_
y_2,28_
y_1,29_
y_2,29_
y_1,30_
y_2,30_
y_1,31_
y_2,31_
y_1,32_
y_2,32_
y_1,33_
y_2,33_
y_1,34_
y_2,34_
y_1,35_
y_2,35_
y_1,36_
y_2,36_
y_1,37_
y_2,37_
y_1,38_
y_2,38_
y_1,39_
y_2,39_
y_1,40_
y_2,40_
y_1,41_
y_2,41_
y_1,42_
y_2,42_
y_1,43_
y_2,43_
y_1,44_
y_2,44_
y_1,45_
y_2,45_
y_1,46_
y_2,46_
y_1,47_
y_2,47_
y_1,48_
y_2,48_
y_1,49_
y_2,49_
y_1,50_
y_2,50_
y_1,51_
y_2,51_
y_1,52_
y_2,52_
y_1,53_
y_2,53_
y_1,54_
y_2,54_
y_1,55_
y_2,55_
y_1,56_
y_2,56_
y_1,57_
y_2,57_
y_1,58_
y_2,58_
y_1,59_
y_2,59_
y_1,60_
y_2,60_
y_1,61_
y_2,61_
y_1,62_
y_2,62_
y_1,63_
y_2,63_
y_1,64_
y_2,64_
y_1,65_
y_2,65_
y_1,66_
y_2,66_
y_1,67_
y_2,67_
y_1,68_
y_2,68_
y_1,69_
y_2,69_
y_1,70_
y_2,70_
y_1,71_
y_2,71_
y_1,72_
y_2,72_
y_1,73_
y_2,73_
y_1,74_
y_2,74_
y_1,75_
y_2,75_
y_1,76_
y_2,76_
y_1,77_
y_2,77_
y_1,78_
y_2,78_
y_1,79_
y_2,79_
y_1,80_
y_2,80_
y_1,81_
y_2,81_
y_1,82_
y_2,82_
y_1,83_
y_2,83_
y_1,84_
y_2,84_
y_1,85_
y_2,85_
y_1,86_
y_2,86_
y_1,87_
y_2,87_
y_1,88_
y_2,88_
y_1,89_
y_2,89_
End
