res_glpk/2_89.log
GLPSOL--GLPK LP/MIP Solver 5.0
Parameter(s) specified in the command line:
 --lp ../modeles/2_89.lp --log 2_89.log
Reading problem data from '../modeles/2_89.lp'...
187 rows, 360 columns, 1256 non-zeros
178 integer variables, all of which are binary
555 lines were read
GLPK Integer Optimizer 5.0
187 rows, 360 columns, 1256 non-zeros
178 integer variables, all of which are binary
Preprocessing...
180 constraint coefficient(s) were reduced
187 rows, 358 columns, 1254 non-zeros
178 integer variables, all of which are binary
Scaling...
 A: min|aij| =  5.050e-04  max|aij| =  4.000e+00  ratio =  7.921e+03
GM: min|aij| =  1.060e-01  max|aij| =  9.434e+00  ratio =  8.900e+01
EQ: min|aij| =  1.124e-02  max|aij| =  1.000e+00  ratio =  8.900e+01
2N: min|aij| =  7.812e-03  max|aij| =  1.765e+00  ratio =  2.259e+02
Constructing initial basis...
Size of triangular part is 187
Solving LP relaxation...
GLPK Simplex Optimizer 5.0
187 rows, 358 columns, 1254 non-zeros
      0: obj =   4.000000000e+00 inf =   9.500e+00 (5)
     17: obj =   4.995580808e-01 inf =   0.000e+00 (0)
*    84: obj =  -1.413711376e+00 inf =   2.020e-15 (0)
OPTIMAL LP SOLUTION FOUND
Integer optimization begins...
Long-step dual simplex will be used
+    84: mip =     not found yet >=              -inf        (1; 0)
+    96: >>>>>  -1.413711376e+00 >=  -1.413711376e+00   0.0% (13; 0)
+    96: mip =  -1.413711376e+00 >=     tree is empty   0.0% (0; 25)
INTEGER OPTIMAL SOLUTION FOUND
Time used:   0.0 secs
Memory used: 0.6 Mb (582864 bytes)
